
******************************************************************************
This program contains Ipopt, a library for large-scale nonlinear optimization.
 Ipopt is released as open source code under the Eclipse Public License (EPL).
         For more information visit http://projects.coin-or.org/Ipopt

This version of Ipopt was compiled from source code available at
    https://github.com/IDAES/Ipopt as part of the Institute for the Design of
    Advanced Energy Systems Process Systems Engineering Framework (IDAES PSE
    Framework) Copyright (c) 2018-2019. See https://github.com/IDAES/idaes-pse.

This version of Ipopt was compiled using HSL, a collection of Fortran codes
    for large-scale scientific computation.  All technical papers, sales and
    publicity material resulting from use of the HSL codes within IPOPT must
    contain the following acknowledgement:
        HSL, a collection of Fortran codes for large-scale scientific
        computation. See http://www.hsl.rl.ac.uk.
******************************************************************************

This is Ipopt version 3.13.2, running with linear solver ma27.

Number of nonzeros in equality constraint Jacobian...:      808
Number of nonzeros in inequality constraint Jacobian.:        0
Number of nonzeros in Lagrangian Hessian.............:      702

Total number of variables............................:      351
                     variables with only lower bounds:      108
                variables with lower and upper bounds:      189
                     variables with only upper bounds:        0
Total number of equality constraints.................:      350
Total number of inequality constraints...............:        0
        inequality constraints with only lower bounds:        0
   inequality constraints with lower and upper bounds:        0
        inequality constraints with only upper bounds:        0

iter    objective    inf_pr   inf_du lg(mu)  ||d||  lg(rg) alpha_du alpha_pr  ls
   0  0.0000000e+00 1.49e+00 3.77e-15  -1.0 0.00e+00    -  0.00e+00 0.00e+00   0
   1  1.2421889e+01 1.07e+00 1.19e+06  -1.0 7.99e+06    -  1.07e-02 3.37e-02h  1
   2  1.2649467e+01 1.07e+00 1.19e+06  -1.0 1.04e+07    -  2.39e-02 2.42e-04h  1
   3  1.2717947e+01 1.07e+00 1.19e+06  -1.0 2.58e+07    -  5.85e-03 4.77e-05h  1
   4  2.3336571e+01 1.06e+00 2.36e+06  -1.0 2.68e+07    -  5.47e-03 4.70e-03h  1
   5  6.2124845e+01 1.02e+00 7.55e+06  -1.0 2.58e+07    -  1.02e-02 8.77e-03h  1
   6  6.6909120e+01 2.23e+00 8.86e+06  -1.0 2.32e+07    -  8.54e-04 8.54e-04s 12
   7  1.8413833e+02 1.77e+01 3.77e+07  -1.0 2.29e+07    -  1.64e-02 1.64e-02s 12
   8  2.6907473e+02 3.89e+01 4.84e+07  -1.0 2.46e+07    -  1.04e-02 1.04e-02s 12
   9  2.9368787e+02 4.13e+01 5.69e+07  -1.0 2.47e+07    -  8.64e-03 8.64e-03s 12
iter    objective    inf_pr   inf_du lg(mu)  ||d||  lg(rg) alpha_du alpha_pr  ls
  10  2.6813707e+02 4.44e+01 6.00e+07  -1.0 2.22e+07    -  9.76e-03 9.76e-03s 12
  11  2.4403136e+02 5.13e+01 6.83e+07  -1.0 2.76e+07    -  9.44e-03 9.44e-03s 12
  12  2.4172047e+02 6.12e+01 6.89e+07  -1.0 3.42e+07    -  7.39e-03 7.39e-03s 12
  13r 2.4172047e+02 6.12e+01 9.99e+02   1.8 0.00e+00    -  0.00e+00 0.00e+00R  1
  14r 2.4171903e+02 1.69e+01 9.94e+02   1.8 1.20e+04    -  1.15e-02 4.03e-03f  1
  15r 2.4171874e+02 8.85e+00 9.84e+02   1.8 3.21e+03    -  1.26e-02 4.11e-03f  1
  16r 2.4171808e+02 5.16e+00 9.68e+02   1.8 7.19e+02    -  4.63e-02 1.22e-02f  1
  17r 2.4171652e+02 3.82e+00 9.22e+02   1.8 6.55e+02    -  2.41e-02 4.93e-02f  1
  18r 2.4171585e+02 3.61e+00 8.87e+02   1.8 7.65e+02    -  6.04e-02 3.33e-02f  1
  19r 2.4171560e+02 3.47e+00 8.40e+02   1.8 5.13e+02    -  7.20e-02 3.03e-02f  1
iter    objective    inf_pr   inf_du lg(mu)  ||d||  lg(rg) alpha_du alpha_pr  ls
  20r 2.4171518e+02 3.18e+00 7.52e+02   1.8 2.07e+02    -  5.55e-01 7.40e-02f  1
  21r 2.4171207e+02 1.02e+00 5.29e+02   1.8 1.15e+01    -  3.27e-01 6.73e-01f  1
  22  2.4185314e+02 1.02e+00 6.21e+02  -1.0 1.86e+07    -  4.85e-02 7.72e-05h  1
  23  2.4174577e+02 1.02e+00 5.67e+04  -1.0 2.29e+07    -  2.85e-02 3.10e-04h  1
  24  2.4164716e+02 1.02e+00 1.33e+05  -1.0 2.29e+07    -  2.84e-02 3.20e-04f  7
  25  2.4160032e+02 1.02e+00 2.97e+05  -1.0 2.29e+07    -  2.93e-02 1.69e-04f  8
  26  2.4159005e+02 1.02e+00 7.14e+05  -1.0 2.36e+07    -  2.97e-02 4.02e-05h 10
  27  2.4158701e+02 1.02e+00 3.12e+06  -1.0 2.90e+07    -  3.14e-02 1.79e-05h 10
  28  2.3991437e+02 1.02e+00 1.72e+07  -1.0 2.27e+07    -  2.89e-02 2.61e-03f  3
  29  2.3983624e+02 7.12e+00 1.77e+07  -1.0 2.29e+07    -  3.43e-02 2.92e-03f  4
iter    objective    inf_pr   inf_du lg(mu)  ||d||  lg(rg) alpha_du alpha_pr  ls
  30  2.3987604e+02 7.12e+00 1.77e+07  -1.0 1.93e+07    -  3.69e-02 4.36e-04h 12
  31  2.3989010e+02 7.12e+00 1.77e+07  -1.0 1.94e+07    -  3.78e-02 1.13e-04h 11
  32  2.3989335e+02 7.12e+00 5.80e+07  -1.0 1.94e+07    -  3.65e-02 2.48e-05h 10
  33r 2.3989335e+02 7.12e+00 9.99e+02   0.9 0.00e+00    -  0.00e+00 4.97e-07R 16
  34r 2.3989331e+02 1.05e+00 9.97e+02   0.9 5.60e+03    -  5.66e-02 1.26e-03f  1
  35r 2.3989331e+02 1.05e+00 9.99e+02   0.0 0.00e+00    -  0.00e+00 2.81e-07R  2
  36r 2.3989327e+02 5.11e-01 9.99e+02   0.0 1.05e+03    -  1.18e-02 9.85e-04f  1
  37r 2.3989327e+02 5.11e-01 9.99e+02  -0.3 0.00e+00    -  0.00e+00 2.51e-07R  3
  38r 2.3989320e+02 4.89e-01 9.98e+02  -0.3 1.11e+03    -  7.21e-03 1.95e-03f  1
  39r 2.3989309e+02 7.16e-01 9.94e+02  -0.3 1.01e+03    -  7.20e-03 3.30e-03f  1
iter    objective    inf_pr   inf_du lg(mu)  ||d||  lg(rg) alpha_du alpha_pr  ls
  40r 2.3989277e+02 7.55e-01 9.86e+02  -0.3 9.47e+02    -  4.19e-02 8.38e-03f  1
  41r 2.3989198e+02 7.62e-01 9.67e+02  -0.3 1.21e+03    -  5.02e-02 1.91e-02f  1
  42r 2.3989131e+02 7.64e-01 9.51e+02  -0.3 1.73e+02    -  5.21e-01 1.61e-02f  1
  43r 2.3986319e+02 7.47e-01 4.86e+02  -0.3 2.92e+02    -  9.44e-01 4.89e-01f  1
  44r 2.3980230e+02 7.16e-01 5.51e+01  -0.3 3.43e+02    -  9.71e-01 1.00e+00f  1
  45r 2.3980148e+02 7.15e-01 3.27e+00  -0.3 1.89e+01    -  9.90e-01 1.00e+00f  1
  46r 2.3980149e+02 7.15e-01 4.81e-01  -0.3 6.75e-01    -  9.90e-01 1.00e+00f  1
  47r 2.3980149e+02 7.15e-01 5.48e-03  -0.3 8.94e-04    -  9.97e-01 1.00e+00h  1
  48r 2.3980294e+02 7.15e-01 8.63e+01  -2.5 6.93e+01    -  9.99e-01 7.35e-01f  1
  49r 2.3969573e+02 7.15e-01 5.64e+02  -2.5 4.85e+03    -  6.21e-01 9.99e-02f  1
iter    objective    inf_pr   inf_du lg(mu)  ||d||  lg(rg) alpha_du alpha_pr  ls
  50r 2.3943635e+02 7.15e-01 1.13e+03  -2.5 4.36e+03    -  8.09e-01 2.44e-01f  1
  51r 2.3902910e+02 7.15e-01 6.90e+02  -2.5 3.30e+03    -  1.00e+00 4.74e-01f  1
  52r 2.3857276e+02 7.15e-01 9.09e-03  -2.5 1.74e+03    -  1.00e+00 1.00e+00f  1
  53r 2.3857113e+02 7.15e-01 2.65e-02  -3.8 2.54e+01    -  1.00e+00 1.00e+00h  1
  54r 2.3561933e+02 7.15e-01 2.01e+00  -3.8 1.76e+04    -  7.82e-01 7.87e-01f  1
  55r 2.3561840e+02 7.15e-01 1.52e+02  -3.8 3.74e+03    -  1.00e+00 1.14e-03h  1
  56r 2.3477972e+02 7.15e-01 8.83e-04  -3.8 3.74e+03    -  1.00e+00 1.00e+00f  1
  57r 2.3477386e+02 7.15e-01 2.84e-06  -3.8 7.06e+01    -  1.00e+00 1.00e+00h  1
  58r 2.3477364e+02 7.15e-01 1.88e-02  -5.7 9.29e+00    -  1.00e+00 1.00e+00f  1
  59r 2.3359778e+02 7.16e-01 7.52e+02  -5.7 2.59e+05    -  1.00e+00 6.04e-02f  1
iter    objective    inf_pr   inf_du lg(mu)  ||d||  lg(rg) alpha_du alpha_pr  ls
  60r 2.3339420e+02 7.16e-01 7.54e+02  -5.7 2.55e+05    -  1.00e+00 1.18e-02f  1
  61r 2.3306053e+02 7.16e-01 7.94e+02  -5.7 2.54e+05    -  1.00e+00 1.89e-02f  1
  62r 2.3291884e+02 7.16e-01 8.19e+02  -5.7 2.06e+05    -  1.00e+00 6.05e-03f  1
  63r 2.3122561e+02 7.16e-01 7.58e+02  -5.7 2.06e+05    -  1.00e+00 7.47e-02f  1
  64r 2.3092598e+02 7.16e-01 7.30e+02  -5.7 1.75e+05    -  1.00e+00 1.37e-02f  1
  65r 2.2279601e+02 7.17e-01 4.25e+02  -5.7 1.72e+05    -  1.00e+00 4.19e-01f  1
  66r 2.2279350e+02 7.17e-01 5.11e+02  -5.7 1.02e+05    -  1.00e+00 2.06e-04f  1
  67r 2.1447582e+02 7.19e-01 1.17e+02  -5.7 1.02e+05    -  1.00e+00 7.71e-01f  1
  68r 2.1447577e+02 7.19e-01 9.41e+01  -5.7 5.31e+04    -  1.00e+00 1.86e-05h  1
  69r 2.1324445e+02 7.19e-01 7.00e+01  -5.7 5.31e+04    -  1.00e+00 4.53e-01f  1
iter    objective    inf_pr   inf_du lg(mu)  ||d||  lg(rg) alpha_du alpha_pr  ls
  70r 2.1247121e+02 7.19e-01 4.03e+01  -5.7 7.85e+04    -  1.00e+00 5.10e-01h  1
  71r 2.1247121e+02 7.19e-01 1.47e+02  -5.7 4.61e+02  -4.0 4.19e-03 2.63e-05h  1
  72r 2.1247264e+02 7.19e-01 3.96e+02  -5.7 3.32e+02  -4.5 1.99e-02 2.76e-02h  1
  73r 2.1247224e+02 7.19e-01 3.16e+02  -5.7 9.21e+01  -5.0 2.71e-02 1.17e-01h  1
  74r 2.1247002e+02 7.20e-01 2.07e+02  -5.7 2.25e+02  -5.4 1.42e-01 3.99e-01h  1
  75r 2.1245835e+02 7.20e-01 5.16e+01  -5.7 4.20e+02  -5.9 9.35e-01 1.00e+00h  1
  76r 2.1245941e+02 7.20e-01 7.80e+02  -5.7 5.23e+02  -6.4 7.50e-01 7.95e-02f  1
  77r 2.1243129e+02 7.20e-01 8.46e+02  -5.7 1.11e+03  -6.9 9.45e-01 1.69e-01f  1
  78r 2.1245732e+02 7.19e-01 1.03e+02  -5.7 1.61e+03  -7.3 7.25e-01 1.00e+00f  1
  79r 2.1245541e+02 7.19e-01 3.30e+02  -5.7 4.02e+03  -7.8 1.00e+00 2.00e-02h  1
iter    objective    inf_pr   inf_du lg(mu)  ||d||  lg(rg) alpha_du alpha_pr  ls
  80r 2.1232871e+02 7.19e-01 5.47e+00  -5.7 1.51e+04  -8.3 1.00e+00 9.85e-01f  1
  81r 2.1233712e+02 7.19e-01 3.77e-04  -5.7 7.66e+03  -7.9 1.00e+00 1.00e+00f  1
  82r 2.1254068e+02 7.19e-01 8.62e-01  -5.7 8.39e+04  -8.3 1.00e+00 2.91e-01f  1
  83r 2.1254068e+02 7.19e-01 1.02e+02  -5.7 4.75e+04    -  2.26e-01 8.45e-07h  1
  84r 2.1253816e+02 7.20e-01 1.00e+02  -5.7 7.37e+03    -  1.00e+00 4.47e-01f  1
  85r 2.1273451e+02 7.20e-01 5.98e-04  -5.7 2.43e+03    -  1.00e+00 1.00e+00f  1
  86r 2.1267661e+02 7.20e-01 8.18e-05  -5.7 5.51e+02    -  1.00e+00 1.00e+00h  1
  87r 2.1265323e+02 7.20e-01 1.14e-05  -5.7 2.07e+02    -  1.00e+00 1.00e+00h  1
  88r 2.1264788e+02 7.20e-01 7.95e-03  -8.6 4.74e+01    -  1.00e+00 1.00e+00f  1
  89r 2.1299368e+02 7.20e-01 7.13e+00  -8.6 2.48e+06  -8.8 1.16e-02 5.09e-03f  1
iter    objective    inf_pr   inf_du lg(mu)  ||d||  lg(rg) alpha_du alpha_pr  ls
  90r 2.1299368e+02 7.20e-01 9.79e+02  -8.6 1.26e+05  -8.4 1.00e+00 3.73e-09f  1
  91r 2.1823139e+02 7.20e-01 8.03e+02  -8.6 1.22e+06  -8.9 2.76e-05 1.29e-01f  1
  92r 2.1823139e+02 7.20e-01 9.46e+02  -8.6 1.85e+06  -8.4 0.00e+00 5.54e-14R 12
  93r 2.1823139e+02 7.20e-01 9.46e+02  -8.6 9.88e+04  -8.0 1.00e+00 8.41e-10f  1
  94r 2.1838328e+02 7.20e-01 7.92e+02  -8.6 2.65e+05  -8.5 1.67e-01 1.41e-01f  1
  95r 2.1838328e+02 7.20e-01 9.02e+02  -8.6 7.88e+04  -8.1 1.00e+00 2.73e-09h  1
  96r 2.1850424e+02 7.20e-01 1.06e+03  -8.6 5.74e+05  -8.5 4.80e-01 1.59e-02f  1
  97r 2.1850423e+02 7.20e-01 1.21e+03  -8.6 9.77e+04  -8.1 1.00e+00 1.68e-06f  1
  98r 2.2269940e+02 1.56e+00 9.93e+02  -8.6 1.21e+06  -8.6 2.80e-01 2.00e-01f  1
  99r 2.2269940e+02 1.56e+00 9.70e+02  -8.6 3.39e+04  -6.4 1.54e-01 7.94e-10h  1
iter    objective    inf_pr   inf_du lg(mu)  ||d||  lg(rg) alpha_du alpha_pr  ls
 100r 2.2134221e+02 8.34e-01 3.36e+02  -8.6 3.62e+04  -6.8 5.57e-01 6.61e-01f  1
 101r 2.2134221e+02 8.34e-01 7.19e+02  -8.6 3.86e+04  -7.3 1.00e+00 3.21e-09h  1
 102r 2.2101159e+02 7.83e-01 7.69e+02  -8.6 4.38e+04  -7.8 1.00e+00 6.20e-02f  1
 103r 2.2101158e+02 7.83e-01 1.29e+03  -8.6 1.10e+05  -8.3 1.00e+00 9.63e-07f  1
 104r 2.2185658e+02 7.68e-01 1.48e+03  -8.6 1.03e+06  -8.8 1.00e+00 1.93e-02f  1
 105r 2.2185549e+02 7.68e-01 1.15e+03  -8.6 1.46e+05  -8.3 1.00e+00 2.82e-04f  1
 106r 2.2190330e+02 7.68e-01 1.29e+03  -8.6 1.03e+07  -8.8 1.00e+00 1.18e-04f  1
 107r 2.1988169e+02 7.21e-01 6.84e+02  -8.6 8.51e+04  -8.4 1.00e+00 4.63e-01f  1
 108r 2.1988169e+02 7.21e-01 1.06e+03  -8.6 5.16e+05  -8.9 1.00e+00 1.50e-08h  1
 109r 2.1967979e+02 7.21e-01 8.72e+02  -8.6 1.11e+05  -8.4 1.00e+00 6.39e-02f  1
iter    objective    inf_pr   inf_du lg(mu)  ||d||  lg(rg) alpha_du alpha_pr  ls
 110r 2.1967978e+02 7.21e-01 1.02e+03  -8.6 7.35e+05  -8.9 1.00e+00 5.15e-06f  1
 111r 2.1619500e+02 7.23e-01 9.22e+00  -8.6 1.33e+05  -8.5 1.00e+00 9.90e-01f  1
 112r 2.1616009e+02 7.23e-01 1.13e+02  -8.6 6.87e+04  -8.1 1.00e+00 4.13e-01f  1
 113r 2.1616009e+02 7.23e-01 4.60e+02  -8.6 6.45e+05  -8.5 1.00e+00 5.63e-09h  1
 114r 2.1670647e+02 7.24e-01 1.60e+02  -8.6 9.45e+04  -8.1 1.00e+00 5.81e-01f  1
 115r 2.1670647e+02 7.24e-01 1.66e+02  -8.6 3.92e+04  -7.7 1.00e+00 7.52e-08h  1
 116r 2.1697608e+02 7.24e-01 2.52e+02  -8.6 1.90e+05  -8.2 1.00e+00 7.78e-02f  1
 117r 2.1697608e+02 7.24e-01 9.69e+02  -8.6 9.49e+04  -8.6 1.00e+00 5.88e-08h  1
 118r 2.1674122e+02 7.25e-01 8.98e+02  -8.6 3.28e+05  -9.1 1.00e+00 1.55e-01f  1
 119r 2.1674121e+02 7.25e-01 9.06e+02  -8.6 2.18e+06  -9.6 1.00e+00 1.17e-07h  1
iter    objective    inf_pr   inf_du lg(mu)  ||d||  lg(rg) alpha_du alpha_pr  ls
 120r 2.1649060e+02 7.25e-01 8.39e+02  -8.6 4.06e+05  -9.2 1.00e+00 1.73e-02f  1
 121r 2.1650562e+02 7.25e-01 1.11e+03  -8.6 2.73e+05    -  1.00e+00 3.25e-04h  1
 122r 2.1796190e+02 7.25e-01 1.08e+03  -8.6 2.73e+05    -  1.00e+00 3.12e-02h  6
 123r 2.1938833e+02 7.26e-01 1.03e+03  -8.6 2.67e+05    -  1.00e+00 3.12e-02h  6
 124r 2.2078953e+02 7.26e-01 9.78e+02  -8.6 2.61e+05    -  1.00e+00 3.12e-02h  6
 125r 2.2216533e+02 7.26e-01 9.32e+02  -8.6 2.56e+05    -  1.00e+00 3.12e-02h  6
 126r 2.2351566e+02 7.26e-01 8.88e+02  -8.6 2.50e+05    -  1.00e+00 3.12e-02h  6
 127r 2.2484045e+02 7.27e-01 8.46e+02  -8.6 2.45e+05    -  1.00e+00 3.12e-02h  6
 128r 2.2613970e+02 7.27e-01 8.06e+02  -8.6 2.40e+05    -  1.00e+00 3.12e-02h  6
 129r 2.2741342e+02 7.27e-01 7.69e+02  -8.6 2.34e+05    -  1.00e+00 3.12e-02h  6
iter    objective    inf_pr   inf_du lg(mu)  ||d||  lg(rg) alpha_du alpha_pr  ls
 130r 2.2866168e+02 7.27e-01 7.33e+02  -8.6 2.29e+05    -  1.00e+00 3.12e-02h  6
 131r 2.2988456e+02 7.28e-01 6.99e+02  -8.6 2.24e+05    -  1.00e+00 3.12e-02h  6
 132r 2.7399821e+02 7.34e-01 1.81e+01  -8.6 2.19e+05    -  1.00e+00 9.98e-01w  1
 133r 2.7510158e+02 7.37e-01 6.48e-01  -8.6 3.95e+04    -  1.00e+00 9.99e-01h  1
 134r 2.7551692e+02 7.37e-01 1.97e-03  -8.6 1.45e+03    -  1.00e+00 1.00e+00h  1

Number of Iterations....: 134

                                   (scaled)                 (unscaled)
Objective...............:   2.7551737013376658e+02    2.7551737013376658e+02
Dual infeasibility......:   5.8324654057342667e-04    5.8324654057342667e-04
Constraint violation....:   7.3734821482170310e-01    7.3734821482170310e-01
Complementarity.........:   2.7852277938922841e-09    2.7852277938922841e-09
Overall NLP error.......:   7.3734821482170310e-01    7.3734821482170310e-01


Number of objective function evaluations             = 348
Number of objective gradient evaluations             = 32
Number of equality constraint evaluations            = 349
Number of inequality constraint evaluations          = 0
Number of equality constraint Jacobian evaluations   = 141
Number of inequality constraint Jacobian evaluations = 0
Number of Lagrangian Hessian evaluations             = 135
Total CPU secs in IPOPT (w/o function evaluations)   =      0.218
Total CPU secs in NLP function evaluations           =      3.293

EXIT: Converged to a point of local infeasibility. Problem may be infeasible.
